Minimize
 Cost:   LoadFunction 
Subject To
Coverage.1: f_1_0 + f_1_1 + f_1_2 + f_1_3 + f_1_4 + f_1_5 + f_1_6 + f_1_7  = 1
ProcLoad.M3: Load.M3  - 50 f_1_1 - 50 f_1_4 - 50 f_1_6 - 50 f_1_2 = 0
ProcLoad.M1: Load.M1  - 50 f_1_7 - 50 f_1_4 - 50 f_1_3 - 50 f_1_2 = 0
ProcLoad.M7: Load.M7  - 50 f_1_5 - 50 f_1_0 - 50 f_1_1 - 50 f_1_6 = 0
ProcLoad.M8: Load.M8  - 50 f_1_0 - 50 f_1_1 - 50 f_1_4 - 50 f_1_3 = 0
ProcLoad.M2: Load.M2  - 50 f_1_5 - 50 f_1_7 - 50 f_1_6 - 50 f_1_2 = 0
ProcLoad.M9: Load.M9  - 50 f_1_5 - 50 f_1_0 - 50 f_1_7 - 50 f_1_3 = 0
ProcLoadBound.M3: Load.M3 <= 100
ProcLoadBound.M1: Load.M1 <= 100
ProcLoadBound.M7: Load.M7 <= 100
ProcLoadBound.M8: Load.M8 <= 100
ProcLoadBound.M2: Load.M2 <= 100
ProcLoadBound.M9: Load.M9 <= 100
MaxProcLoadBound.M3: Load.M3 - LoadFunction <= 0
MaxProcLoadBound.M1: Load.M1 - LoadFunction <= 0
MaxProcLoadBound.M7: Load.M7 - LoadFunction <= 0
MaxProcLoadBound.M8: Load.M8 - LoadFunction <= 0
MaxProcLoadBound.M2: Load.M2 - LoadFunction <= 0
MaxProcLoadBound.M9: Load.M9 - LoadFunction <= 0
RuleLoad.S6:  1 a_1_5 + 1 a_1_0 + 1 a_1_7 + 2 a_1_1 + 2 a_1_4 + 2 a_1_6 + 3 a_1_3 <= 200
RuleLoad.S1:  3 a_1_7 + 3 a_1_2 + 1 a_1_0 + 1 a_1_5 + 1 a_1_1 + 3 a_1_4 + 1 a_1_6 + 3 a_1_3 <= 200
RuleLoad.S9:  2 a_1_5 + 2 a_1_0 + 2 a_1_7 + 2 a_1_3 <= 200
RuleLoad.S4:  1 a_1_5 + 1 a_1_0 + 1 a_1_7 + 1 a_1_1 + 2 a_1_4 + 1 a_1_6 + 3 a_1_3 <= 200
RuleLoad.S8:  2 a_1_5 + 3 a_1_0 + 1 a_1_7 + 3 a_1_1 + 2 a_1_4 + 2 a_1_6 + 3 a_1_3 <= 200
RuleLoad.S2:  2 a_1_5 + 2 a_1_7 + 1 a_1_4 + 2 a_1_6 + 3 a_1_2 <= 200
RuleLoad.S5:  1 a_1_7 + 1 a_1_2 + 1 a_1_0 + 1 a_1_5 + 2 a_1_1 + 1 a_1_4 + 2 a_1_6 + 1 a_1_3 <= 200
RuleLoad.S7:  2 a_1_5 + 2 a_1_0 + 2 a_1_1 + 2 a_1_6 <= 200
RuleLoad.S3:  2 a_1_1 + 2 a_1_4 + 2 a_1_6 + 2 a_1_2 <= 200
SanityCheck.1.0: f_1_0 - a_1_0 <= 0
SanityCheck.1.1: f_1_1 - a_1_1 <= 0
SanityCheck.1.2: f_1_2 - a_1_2 <= 0
SanityCheck.1.3: f_1_3 - a_1_3 <= 0
SanityCheck.1.4: f_1_4 - a_1_4 <= 0
SanityCheck.1.5: f_1_5 - a_1_5 <= 0
SanityCheck.1.6: f_1_6 - a_1_6 <= 0
SanityCheck.1.7: f_1_7 - a_1_7 <= 0
Bounds
 0 <= f_1_0 <= 1
 0 <= f_1_1 <= 1
 0 <= f_1_2 <= 1
 0 <= f_1_3 <= 1
 0 <= f_1_4 <= 1
 0 <= f_1_5 <= 1
 0 <= f_1_6 <= 1
 0 <= f_1_7 <= 1
Binaries
a_1_0
a_1_1
a_1_2
a_1_3
a_1_4
a_1_5
a_1_6
a_1_7
End
